(set-info :source |printed by MathSAT|)
(declare-fun |.x{16}| () (Array Int Int))
(declare-fun |.x{22}| () (Array Int Int))
(declare-fun |.x{17}| () Int)
(declare-fun |.y{10}| () Int)
(declare-fun |.x{18}| () Int)
(declare-fun |.y{11}| () Int)
(declare-fun |.x{19}| () Int)
(declare-fun |.y{12}| () Int)
(declare-fun |.x{20}| () Int)
(declare-fun |.y{13}| () Int)
(declare-fun |.y{5}| () (Array Int Int))
(declare-fun |.x{21}| () (Array Int Int))
(declare-fun |.y{6}| () Int)
(declare-fun |.x{23}| () Int)
(declare-fun |.y{7}| () Int)
(declare-fun |.x{24}| () Int)
(declare-fun |.y{8}| () Int)
(declare-fun |.x{25}| () Int)
(declare-fun |.y{9}| () Int)
(declare-fun |.x{26}| () Int)
(declare-fun |.loc{2}| () Bool)
(declare-fun |.loc{3}| () Bool)
(declare-fun |.x{45}| () Int)
(define-fun .def_10 () Int (! |.x{17}| :next |.y{10}|))
(define-fun .def_93 () Bool (= .def_10 0))
(define-fun .def_28 () Bool (! |.loc{2}| :next |.loc{3}|))
(define-fun .def_33 () Bool (not .def_28))
(define-fun .def_94 () Bool (! (and .def_33 .def_93) :init true))
(define-fun .def_8 () (Array Int Int) (! |.x{16}| :next |.x{22}|))
(define-fun .def_91 () Bool (= .def_8 |.x{22}|))
(define-fun .def_16 () Int (! |.x{20}| :next |.y{13}|))
(define-fun .def_86 () Bool (= .def_16 |.x{26}|))
(define-fun .def_14 () Int (! |.x{19}| :next |.y{12}|))
(define-fun .def_84 () Bool (= .def_14 |.x{25}|))
(define-fun .def_12 () Int (! |.x{18}| :next |.y{11}|))
(define-fun .def_82 () Bool (= .def_12 |.x{24}|))
(define-fun .def_80 () Bool (= |.x{23}| 0))
(define-fun .def_41 () Bool (<= .def_16 .def_10))
(define-fun .def_78 () Bool (and .def_33 .def_41))
(define-fun .def_81 () Bool (and .def_78 .def_80))
(define-fun .def_83 () Bool (and .def_81 .def_82))
(define-fun .def_85 () Bool (and .def_83 .def_84))
(define-fun .def_87 () Bool (and .def_85 .def_86))
(define-fun .def_20 () Int (! |.y{6}| :next |.x{23}|))
(define-fun .def_26 () Int (! |.y{9}| :next |.x{26}|))
(define-fun .def_75 () Bool (<= .def_26 .def_20))
(define-fun .def_76 () Bool (not .def_75))
(define-fun .def_22 () Int (! |.y{7}| :next |.x{24}|))
(define-fun .def_73 () Bool (= .def_22 |.x{24}|))
(define-fun .def_24 () Int (! |.y{8}| :next |.x{25}|))
(define-fun .def_71 () Bool (= .def_24 |.x{25}|))
(define-fun .def_69 () Bool (= .def_26 |.x{26}|))
(define-fun .def_65 () Int (* (- 1) |.x{23}|))
(define-fun .def_66 () Int (+ .def_20 .def_65))
(define-fun .def_67 () Bool (= .def_66 (- 1)))
(define-fun .def_54 () Int (select .def_8 .def_20))
(define-fun .def_55 () Int (+ .def_24 .def_54))
(define-fun .def_56 () Int (* (- 1) .def_22))
(define-fun .def_58 () Int (+ .def_56 .def_55))
(define-fun .def_18 () (Array Int Int) (! |.y{5}| :next |.x{21}|))
(define-fun .def_59 () (Array Int Int) (store .def_18 .def_20 .def_58))
(define-fun .def_60 () Bool (= |.x{21}| .def_59))
(define-fun .def_61 () Bool (and .def_28 .def_60))
(define-fun .def_68 () Bool (and .def_61 .def_67))
(define-fun .def_70 () Bool (and .def_68 .def_69))
(define-fun .def_72 () Bool (and .def_70 .def_71))
(define-fun .def_74 () Bool (and .def_72 .def_73))
(define-fun .def_77 () Bool (and .def_74 .def_76))
(define-fun .def_88 () Bool (or .def_77 .def_87))
(define-fun .def_89 () Bool (and |.loc{3}| .def_88))
(define-fun .def_50 () Int (* (- 1) |.y{10}|))
(define-fun .def_51 () Int (+ .def_10 .def_50))
(define-fun .def_52 () Bool (= .def_51 (- 1)))
(define-fun .def_35 () Int (select .def_8 .def_10))
(define-fun .def_44 () Bool (<= .def_35 .def_14))
(define-fun .def_45 () Bool (not .def_44))
(define-fun .def_46 () Int (ite .def_45 .def_35 .def_14))
(define-fun .def_47 () Bool (= |.y{12}| .def_46))
(define-fun .def_42 () Bool (not .def_41))
(define-fun .def_36 () Bool (<= .def_12 .def_35))
(define-fun .def_37 () Bool (not .def_36))
(define-fun .def_38 () Int (ite .def_37 .def_35 .def_12))
(define-fun .def_39 () Bool (= |.y{11}| .def_38))
(define-fun .def_31 () Bool (not |.loc{3}|))
(define-fun .def_30 () Bool (= .def_16 |.y{13}|))
(define-fun .def_32 () Bool (and .def_30 .def_31))
(define-fun .def_34 () Bool (and .def_32 .def_33))
(define-fun .def_40 () Bool (and .def_34 .def_39))
(define-fun .def_43 () Bool (and .def_40 .def_42))
(define-fun .def_48 () Bool (and .def_43 .def_47))
(define-fun .def_53 () Bool (and .def_48 .def_52))
(define-fun .def_90 () Bool (or .def_53 .def_89))
(define-fun .def_92 () Bool (! (and .def_90 .def_91) :trans true))
(define-fun .def_95 () Int (! |.x{45}| :next |.xpv{1}|))
(define-fun .def_102 () Bool (<= .def_95 0))
(define-fun .def_103 () Bool (not .def_102))
(define-fun .def_104 () Bool (and .def_75 .def_103))
(define-fun .def_100 () Bool (<= .def_26 .def_95))
(define-fun .def_101 () Bool (not .def_100))
(define-fun .def_105 () Bool (and .def_101 .def_104))
(define-fun .def_96 () Int (select .def_18 .def_95))
(define-fun .def_97 () Int (select .def_8 .def_95))
(define-fun .def_98 () Bool (<= .def_97 .def_96))
(define-fun .def_99 () Bool (not .def_98))
(define-fun .def_106 () Bool (and .def_99 .def_105))
(define-fun .def_107 () Bool (and .def_28 .def_106))
(define-fun .def_109 () Bool (! (not .def_107) :invar-property 0))
(assert true)
